minimize
 + 3.000000000000000000e+00 x + 4.000000000000000000e+00 y
subject to
 - 1.000000000000000000e+00 x - 1.000000000000000000e+00 y <= - 9.000000000000000000e+00
 + 1.000000000000000000e+00 x - 1.000000000000000000e+00 y <= + 9.000000000000000000e+00
 - 1.000000000000000000e+00 x - 3.000000000000000000e+00 y <= - 1.800000000000000000e+01
 - 1.000000000000000000e+00 x <= - 3.000000000000000000e+00
 + 1.000000000000000000e+00 y <= + 1.000000000000000000e+01
end
